c A SAT instance generated from a 3-CNF formula that had 40 clauses and 10 variables
p cnf 10 40
-6 -4 -1 0
4 -3 2 0
-4 7 -6 0
-6 8 5 0
5 8 2 0
8 6 -9 0
-6 -7 9 0
-2 10 -9 0
-4 10 7 0
-3 4 -9 0
-1 -4 5 0
1 4 -10 0
-9 8 10 0
8 10 -2 0
10 -7 -9 0
-1 6 -10 0
5 8 6 0
5 -7 2 0
-10 -1 -5 0
-10 8 -7 0
-2 -4 1 0
-9 7 -8 0
-6 -1 9 0
8 -1 -7 0
-10 3 -8 0
-8 -9 -7 0
-7 2 -10 0
-1 -2 -7 0
-8 2 9 0
8 -9 4 0
-8 4 -2 0
-7 -9 3 0
3 9 -10 0
-7 10 -3 0
-10 8 6 0
-8 3 2 0
5 -7 -8 0
-10 -4 6 0
6 3 -7 0
-3 -9 -8 0
